NAME : sample_50
COMMENT : Sample TSP instance with 50 cities
TYPE : TSP
DIMENSION : 50
EDGE_WEIGHT_TYPE : EUC_2D
NODE_COORD_SECTION
1 578 88
2 152 809
3 648 213
4 888 430
5 956 752
6 919 407
7 759 930
8 95 985
9 88 3
10 258 92
11 306 688
12 870 470
13 317 549
14 53 296
15 802 859
16 704 116
17 828 813
18 787 263
19 849 915
20 488 915
21 809 571
22 12 768
23 712 991
24 971 476
25 519 920
26 509 351
27 47 678
28 260 59
29 656 164
30 216 76
31 802 743
32 506 961
33 442 263
34 312 79
35 14 75
36 679 348
37 921 208
38 555 894
39 671 29
40 740 702
41 113 769
42 494 547
43 95 69
44 811 576
45 875 366
46 854 373
47 709 15
48 607 625
49 725 596
50 18 439
EOF
